c description: Random 3-CNF over 16 variables and 32 clauses
p cnf 16 32
-2 4 -12 0
2 6 -10 0
4 11 13 0
-8 -14 16 0
-3 -10 -15 0
1 6 -9 0
4 10 12 0
-6 8 -11 0
1 2 -14 0
2 11 -12 0
8 -10 13 0
-2 -4 12 0
7 -9 -11 0
-2 -12 14 0
6 11 -14 0
4 -6 -10 0
1 -11 -13 0
-3 10 -16 0
-5 8 -9 0
-4 -10 -12 0
-3 -4 13 0
5 -6 -8 0
11 -13 14 0
-1 -9 11 0
4 5 15 0
2 -6 -15 0
5 6 16 0
2 5 9 0
-2 -10 12 0
7 -10 -14 0
9 -14 -15 0
-3 8 -15 0